DATASET = "thpack4";
INSTANCE = "004";

WIDTH = 233;
HEIGHT = 220;
LENGTH = 587;

NO_OF_SHAPES = 10;
size = [|
  113,92,33 |
  52,37,28 |
  57,33,29 |
  99,37,30 |
  92,64,33 |
  119,59,39 |
  54,52,49 |
  75,45,35 |
  79,68,44 |
  116,49,47 |
|];

verticality = [|
  0,0,1 |
  1,1,1 |
  1,1,1 |
  0,1,1 |
  0,1,1 |
  0,1,1 |
  1,1,1 |
  0,1,1 |
  1,1,1 |
  0,1,1 |
|];

box_count = [
  15,
  17,
  17,
  19,
  13,
  19,
  13,
  21,
  13,
  22,
];
